Solver command line: ['C:\\Program Files\\IBM\\ILOG\\CPLEX_Studio2211\\cplex\\bin\\x64_win64\\cplex.exe']


Welcome to IBM(R) ILOG(R) CPLEX(R) Interactive Optimizer 22.1.1.0
  with Simplex, Mixed Integer & Barrier Optimizers
5725-A06 5725-A29 5724-Y48 5724-Y49 5724-Y54 5724-Y55 5655-Y21
Copyright IBM Corp. 1988, 2022.  All Rights Reserved.

Type 'help' for a list of available commands.
Type 'help' followed by a command name for more
information on commands.

CPLEX> Logfile 'cplex.log' closed.
Logfile 'C:\Users\wangy\Documents\GitHub\re_optimization\result_site_specific\tmpusgi780q.cplex.log' open.
CPLEX> Problem 'C:\Users\wangy\Documents\GitHub\re_optimization\result_site_specific\tmpzw7fqdrp.pyomo.lp' read.
Read time = 0.30 sec. (9.13 ticks)
CPLEX> Problem name         : C:\Users\wangy\Documents\GitHub\re_optimization\result_site_specific\tmpzw7fqdrp.pyomo.lp
Objective sense      : Minimize
Variables            :   65769  [Nneg: 35068,  Free: 8792,  Binary: 9,
                                 Other: 21900]
Objective nonzeros   :      17
Linear constraints   :   87665  [Less: 46741,  Greater: 5,  Equal: 40919]
  Nonzeros           :  225067
  RHS nonzeros       :    3780

Variables            : Min LB: 0.000000         Max UB: 1.000000       
Objective nonzeros   : Min   : 1.000000         Max   : 1.000000       
Linear constraints   :
  Nonzeros           : Min   : 0.0008867406     Max   : 100000.0       
  RHS nonzeros       : Min   : 0.07000000       Max   : 100000.0       
CPLEX> Version identifier: 22.1.1.0 | 2022-11-27 | 9160aff4d
Tried aggregator 3 times.
MIP Presolve eliminated 52628 rows and 32186 columns.
Aggregator did 10223 substitutions.
Reduced MIP has 24814 rows, 23360 columns, and 74299 nonzeros.
Reduced MIP has 5 binaries, 0 generals, 0 SOSs, and 0 indicators.
Presolve time = 0.19 sec. (225.60 ticks)
Found incumbent of value 272411.702338 after 0.28 sec. (322.05 ticks)
Probing time = 0.00 sec. (1.33 ticks)
Tried aggregator 1 time.
Detecting symmetries...
Reduced MIP has 24814 rows, 23360 columns, and 74299 nonzeros.
Reduced MIP has 5 binaries, 0 generals, 0 SOSs, and 0 indicators.
Presolve time = 0.05 sec. (47.56 ticks)
Probing time = 0.00 sec. (1.22 ticks)
MIP emphasis: balance optimality and feasibility.
MIP search method: dynamic search.
Parallel mode: deterministic, using up to 16 threads.
Root relaxation solution time = 1.08 sec. (733.01 ticks)

        Nodes                                         Cuts/
   Node  Left     Objective  IInf  Best Integer    Best Bound    ItCnt     Gap

*     0+    0                       272411.7023    -7355.8661           102.70%
      0     0     6912.5850     1   272411.7023     6912.5850       51   97.46%
*     0+    0                         8517.3211     6912.5850            18.84%
*     0+    0                         7273.4596     6912.5850             4.96%
      0     0        cutoff           7273.4596                    777    0.00%
Elapsed time = 1.72 sec. (1623.26 ticks, tree = 0.01 MB, solutions = 3)

Root node processing (before b&c):
  Real time             =    1.74 sec. (1626.45 ticks)
Parallel b&c, 16 threads:
  Real time             =    0.00 sec. (0.00 ticks)
  Sync time (average)   =    0.00 sec.
  Wait time (average)   =    0.00 sec.
                          ------------
Total (root+branch&cut) =    1.74 sec. (1626.45 ticks)

Solution pool: 3 solutions saved.

MIP - Integer optimal solution:  Objective =  7.2734596473e+03
Solution time =    1.74 sec.  Iterations = 777  Nodes = 0
Deterministic time = 1626.64 ticks  (937.54 ticks/sec)

CPLEX> Incumbent solution written to file 'C:\Users\wangy\Documents\GitHub\re_optimization\result_site_specific\tmpuypv5pyu.cplex.sol'.
CPLEX> 
